Gurobi Optimizer version 9.1.0 build v9.1.0rc0 (linux64)
Thread count: 8 physical cores, 16 logical processors, using up to 16 threads
Optimize a model with 104216 rows, 100800 columns and 576950 nonzeros
Model fingerprint: 0xdf242efe
Variable types: 0 continuous, 100800 integer (100800 binary)
Coefficient statistics:
  Matrix range     [1e+00, 1e+00]
  Objective range  [1e+01, 3e+04]
  Bounds range     [1e+00, 1e+00]
  RHS range        [1e+00, 2e+02]
Presolve added 0 rows and 1450 columns
Presolve removed 50 rows and 0 columns
Presolve time: 2.37s
Presolved: 104166 rows, 102250 columns, 431350 nonzeros
Variable types: 0 continuous, 102250 integer (102250 binary)
Found heuristic solution: objective 193021.00000

Concurrent LP optimizer: primal simplex, dual simplex, and barrier
Showing barrier log only...

Root barrier log...

Ordering time: 0.42s

Barrier statistics:
 Dense cols : 400
 AA' NZ     : 3.344e+05
 Factor NZ  : 1.300e+06 (roughly 100 MBytes of memory)
 Factor Ops : 3.284e+08 (less than 1 second per iteration)
 Threads    : 6

                  Objective                Residual
Iter       Primal          Dual         Primal    Dual     Compl     Time
   0   7.51086397e+07 -1.03487553e+08  3.08e+02 2.94e+01  7.83e+03     5s
   1   5.27947486e+05 -9.00396994e+07  1.35e+00 1.85e+02  3.25e+02     5s
   2   2.37933889e+05 -2.74406754e+07  1.26e-01 5.20e+01  9.15e+01     5s
   3   2.11986378e+05 -1.02277449e+07  1.48e-02 2.23e+01  3.41e+01     5s
   4   2.04919050e+05 -7.40223572e+05  3.65e-03 2.96e+00  3.08e+00     5s
   5   1.94793377e+05 -2.60672972e+05  2.27e-03 1.36e+00  1.48e+00     5s
   6   1.86109036e+05  2.24249041e+03  1.64e-03 4.55e-01  5.99e-01     6s
   7   1.80789303e+05  7.71860766e+04  1.32e-03 2.32e-01  3.37e-01     6s
   8   1.77544336e+05  1.09445909e+05  1.16e-03 1.30e-01  2.21e-01     6s
   9   1.73809941e+05  1.23615012e+05  9.88e-04 8.78e-02  1.63e-01     6s
  10   1.69588721e+05  1.32431519e+05  8.04e-04 5.93e-02  1.21e-01     6s
  11   1.64331801e+05  1.38048857e+05  5.79e-04 4.05e-02  8.54e-02     7s
  12   1.62428184e+05  1.41530893e+05  4.90e-04 2.97e-02  6.79e-02     7s
  13   1.60356942e+05  1.44987743e+05  3.98e-04 1.90e-02  4.99e-02     7s
  14   1.59074646e+05  1.46386024e+05  3.40e-04 1.47e-02  4.12e-02     7s
  15   1.57089257e+05  1.47819205e+05  2.57e-04 1.01e-02  3.01e-02     7s
  16   1.56119407e+05  1.48613350e+05  2.14e-04 7.77e-03  2.44e-02     8s
  17   1.55213508e+05  1.49142910e+05  1.72e-04 6.26e-03  1.97e-02     8s
  18   1.54372934e+05  1.49733604e+05  1.34e-04 4.58e-03  1.51e-02     8s
  19   1.53856442e+05  1.50191863e+05  1.11e-04 3.30e-03  1.19e-02     8s
  20   1.53408174e+05  1.50492334e+05  9.17e-05 2.59e-03  9.46e-03     8s
  21   1.53003798e+05  1.50680482e+05  7.38e-05 2.10e-03  7.54e-03     9s
  22   1.52679976e+05  1.50892138e+05  5.92e-05 1.47e-03  5.80e-03     9s
  23   1.52346117e+05  1.50956644e+05  4.38e-05 1.28e-03  4.51e-03     9s
  24   1.52233165e+05  1.51095917e+05  3.83e-05 8.91e-04  3.69e-03     9s
  25   1.52132241e+05  1.51121122e+05  3.36e-05 8.18e-04  3.28e-03     9s
  26   1.52072825e+05  1.51154435e+05  3.09e-05 6.93e-04  2.98e-03    10s
  27   1.51933054e+05  1.51210788e+05  2.45e-05 5.37e-04  2.34e-03    10s
  28   1.51879624e+05  1.51250991e+05  2.20e-05 4.18e-04  2.04e-03    10s
  29   1.51775172e+05  1.51293991e+05  1.71e-05 3.08e-04  1.56e-03    10s
  30   1.51748363e+05  1.51298683e+05  1.58e-05 2.99e-04  1.46e-03    10s
  31   1.51659849e+05  1.51336533e+05  1.17e-05 2.19e-04  1.05e-03    11s
  32   1.51606705e+05  1.51354902e+05  9.20e-06 1.67e-04  8.16e-04    11s
  33   1.51560042e+05  1.51364756e+05  7.02e-06 1.40e-04  6.33e-04    11s
  34   1.51532978e+05  1.51375515e+05  5.67e-06 1.05e-04  5.11e-04    11s
  35   1.51510840e+05  1.51383804e+05  4.55e-06 8.45e-05  4.12e-04    11s
  36   1.51490584e+05  1.51395080e+05  3.52e-06 5.79e-05  3.10e-04    11s
  37   1.51475132e+05  1.51402571e+05  2.76e-06 3.69e-05  2.35e-04    12s
  38   1.51458601e+05  1.51404845e+05  2.00e-06 3.09e-05  1.74e-04    12s
  39   1.51449522e+05  1.51407706e+05  1.56e-06 2.34e-05  1.36e-04    12s
  40   1.51441057e+05  1.51410440e+05  1.13e-06 1.65e-05  9.93e-05    12s
  41   1.51436895e+05  1.51412179e+05  9.27e-07 1.35e-05  8.01e-05    12s
  42   1.51433058e+05  1.51414012e+05  7.39e-07 9.02e-06  6.17e-05    12s
  43   1.51429186e+05  1.51414766e+05  5.52e-07 7.23e-06  4.67e-05    13s
  44   1.51425957e+05  1.51415377e+05  3.91e-07 5.76e-06  3.43e-05    13s
  45   1.51425225e+05  1.51416120e+05  3.59e-07 4.05e-06  2.95e-05    13s
  46   1.51423544e+05  1.51416600e+05  2.73e-07 2.82e-06  2.25e-05    13s
  47   1.51422233e+05  1.51417245e+05  2.10e-07 1.77e-06  1.62e-05    13s
  48   1.51420970e+05  1.51417624e+05  1.48e-07 8.12e-07  1.08e-05    13s
  49   1.51419147e+05  1.51417666e+05  5.86e-08 6.73e-07  4.80e-06    14s
  50   1.51419011e+05  1.51417714e+05  5.22e-08 5.10e-07  4.21e-06    14s
  51   1.51418866e+05  1.51417748e+05  4.55e-08 3.67e-07  3.62e-06    14s
  52   1.51418676e+05  1.51417779e+05  3.67e-08 2.70e-07  2.91e-06    14s
  53   1.51418595e+05  1.51417799e+05  3.29e-08 2.05e-07  2.58e-06    14s
  54   1.51418495e+05  1.51417806e+05  2.84e-08 1.73e-07  2.23e-06    14s
  55   1.51418337e+05  1.51417821e+05  2.13e-08 1.21e-07  1.67e-06    14s
  56   1.51418276e+05  1.51417832e+05  1.85e-08 6.76e-08  1.44e-06    14s
  57   1.51418121e+05  1.51417841e+05  1.16e-08 4.75e-08  9.08e-07    14s
  58   1.51418112e+05  1.51417842e+05  1.12e-08 5.26e-08  8.76e-07    15s
  59   1.51417998e+05  1.51417852e+05  6.13e-09 1.49e-07  4.74e-07    15s
  60   1.51417883e+05  1.51417857e+05  8.49e-10 6.15e-08  8.30e-08    15s
  61   1.51417879e+05  1.51417861e+05  7.07e-10 2.96e-08  6.08e-08    15s
  62   1.51417875e+05  1.51417862e+05  5.02e-10 1.64e-08  4.27e-08    15s
  63   1.51417873e+05  1.51417862e+05  3.72e-09 3.90e-08  3.41e-08    15s
  64   1.51417873e+05  1.51417862e+05  2.23e-08 3.88e-08  3.40e-08    15s
  65   1.51417872e+05  1.51417862e+05  2.20e-08 3.87e-08  3.37e-08    15s
  66   1.51417872e+05  1.51417862e+05  2.17e-08 2.33e-08  3.31e-08    16s

Barrier solved model in 66 iterations and 15.65 seconds
Optimal objective 1.51417872e+05


Root crossover log...

   49960 DPushes remaining with DInf 0.0000000e+00                16s
       0 DPushes remaining with DInf 0.0000000e+00                17s

     550 PPushes remaining with PInf 5.9974137e-06                17s
       0 PPushes remaining with PInf 3.8065961e-03                17s

  Push phase complete: Pinf 3.8065961e-03, Dinf 3.9394710e-10     17s


Root simplex log...

Iteration    Objective       Primal Inf.    Dual Inf.      Time
   11685    1.5141786e+05   3.806596e-03   0.000000e+00     17s
   11700    1.5141786e+05   0.000000e+00   0.000000e+00     17s
   11700    1.5141786e+05   0.000000e+00   0.000000e+00     17s

Solved with barrier

Root relaxation: objective 1.514179e+05, 11700 iterations, 13.85 seconds

    Nodes    |    Current Node    |     Objective Bounds      |     Work
 Expl Unexpl |  Obj  Depth IntInf | Incumbent    BestBd   Gap | It/Node Time

     0     0 151417.864    0 11053 193021.000 151417.864  21.6%     -   19s
H    0     0                    161344.00000 151417.864  6.15%     -   20s
H    0     0                    161325.00000 151417.864  6.14%     -   21s
H    0     0                    161125.00000 151417.864  6.02%     -   21s
     0     0 151417.864    0 11053 161125.000 151417.864  6.02%     -   56s
H    0     0                    161124.00000 151417.864  6.02%     -   91s
     0     2 151417.864    0 11051 161124.000 151417.864  6.02%     -   97s
     1     4 151571.806    1 11336 161124.000 151417.884  6.02% 16371  269s
     3     6 153196.786    2 7050 161124.000 151571.833  5.93% 21268  300s

Explored 5 nodes (95203 simplex iterations) in 300.07 seconds
Thread count was 16 (of 16 available processors)

Solution count 5: 161124 161125 161325 ... 193021

Time limit reached
Best objective 1.611240000000e+05, best bound 1.515720000000e+05, gap 5.9284%

User-callback calls 94329, time in user-callback 1.00 sec
['/opt/local/stow/gurobi910/linux64/lib/libgurobi91.so']
Result: runtime=300.04sec; objective=161124; gap=0.0593%
Solution written to /autofs/unityaccount/cremi/mdeboute/Bureau/multi-period-flp/solution//instSingle_I50_J250_T8_1_result.txt
